2 15
139 173 
0 55 45 73 63 29 47 2
1 65 55 50 40 56 99 1
2 87 77 30 20 24 16 1
3 90 80 106 96 88 56 1
4 81 71 52 42 8 13 2
5 35 25 36 26 87 34 1
6 98 88 53 43 51 9 1
7 23 13 108 98 75 44 2
8 39 29 82 72 33 7 1
9 25 15 101 91 5 98 1
10 45 35 99 89 55 33 1
11 100 90 101 91 7 43 1
12 12 2 39 29 95 72 1
13 65 55 21 11 26 84 1
14 27 17 65 55 88 14 1
